64 51 76 89 91 
95 62 85 84 56 66 
42 44 41 43 68 
72 39 36 40 38 35 37 
98 12 78 53 55 
2 7 6 8 46 4 100 
69 88 73 79 60 
71 67 94 96 54 
92 31 29 27 26 32 93 
59 75 97 58 77 
63 33 28 30 34 50 80 
45 5 3 1 70 
61 81 90 
65 52 57 22 49 20 24 
82 99 86 87 74 
14 47 11 15 16 9 10 13 17 
83 23 21 19 18 48 25 
